
Gurobi 10.0.1 (win64) logging started Sat Jun 10 18:09:34 2023

Set parameter LogFile to value "results/log/Fattahi_setup_11_modified_deadline.log"
Gurobi Optimizer version 10.0.1 build v10.0.1rc0 (win64)

CPU model: AMD Ryzen 7 3700X 8-Core Processor, instruction set [SSE2|AVX|AVX2]
Thread count: 8 physical cores, 16 logical processors, using up to 16 threads

Optimize a model with 293 rows, 325 columns and 1082 nonzeros
Model fingerprint: 0x0850d88f
Variable types: 0 continuous, 325 integer (291 binary)
Coefficient statistics:
  Matrix range     [1e+00, 1e+09]
  Objective range  [1e+00, 1e+00]
  Bounds range     [1e+00, 1e+00]
  RHS range        [1e+00, 3e+09]
Warning: Model contains large matrix coefficients
Warning: Model contains large rhs
         Consider reformulating model or setting NumericFocus parameter
         to avoid numerical issues.
Presolve removed 78 rows and 219 columns
Presolve time: 0.00s
Presolved: 215 rows, 106 columns, 911 nonzeros
Variable types: 0 continuous, 106 integer (73 binary)

Root relaxation: objective 1.298387e+03, 35 iterations, 0.00 seconds (0.00 work units)

    Nodes    |    Current Node    |     Objective Bounds      |     Work
 Expl Unexpl |  Obj  Depth IntInf | Incumbent    BestBd   Gap | It/Node Time

     0     0 1298.38711    0   20          - 1298.38711      -     -    0s
H    0     0                    2982.0000000 1298.38711  56.5%     -    0s
H    0     0                    2954.0000000 1298.38711  56.0%     -    0s
H    0     0                    2677.0000000 1301.00002  51.4%     -    0s
     0     0 1301.00002    0   31 2677.00000 1301.00002  51.4%     -    0s
H    0     0                    2525.0000000 1301.00002  48.5%     -    0s
H    0     0                    2308.0000000 1301.00002  43.6%     -    0s
H    0     0                    2262.0000000 1314.50000  41.9%     -    0s
     0     0 1314.50000    0   17 2262.00000 1314.50000  41.9%     -    0s
     0     0 1338.00000    0   24 2262.00000 1338.00000  40.8%     -    0s
     0     0 1338.00000    0   24 2262.00000 1338.00000  40.8%     -    0s
H    0     0                    1994.0000000 1338.00000  32.9%     -    0s
     0     0 1340.70588    0   12 1994.00000 1340.70588  32.8%     -    0s
     0     0 1340.70588    0   13 1994.00000 1340.70588  32.8%     -    0s
     0     0 1343.17325    0   26 1994.00000 1343.17325  32.6%     -    0s
     0     0 1343.99138    0   27 1994.00000 1343.99138  32.6%     -    0s
     0     0 1344.08621    0   26 1994.00000 1344.08621  32.6%     -    0s
     0     0 1344.40384    0   28 1994.00000 1344.40384  32.6%     -    0s
H    0     0                    1817.0000000 1344.40384  26.0%     -    0s
     0     0 1344.40384    0   28 1817.00000 1344.40384  26.0%     -    0s
     0     0 1345.72838    0   26 1817.00000 1345.72838  25.9%     -    0s
     0     0 1346.12112    0   26 1817.00000 1346.12112  25.9%     -    0s
     0     0 1346.69862    0   33 1817.00000 1346.69862  25.9%     -    0s
     0     0 1346.69862    0   33 1817.00000 1346.69862  25.9%     -    0s
     0     0 1347.57454    0   31 1817.00000 1347.57454  25.8%     -    0s
     0     0 1349.10809    0   30 1817.00000 1349.10809  25.8%     -    0s
     0     0 1350.11995    0   36 1817.00000 1350.11995  25.7%     -    0s
     0     0 1350.11995    0   36 1817.00000 1350.11995  25.7%     -    0s
     0     0 1353.72187    0   34 1817.00000 1353.72187  25.5%     -    0s
     0     0 1353.72187    0   34 1817.00000 1353.72187  25.5%     -    0s
     0     0 1353.72187    0   34 1817.00000 1353.72187  25.5%     -    0s
     0     0 1353.72187    0   34 1817.00000 1353.72187  25.5%     -    0s
H    0     0                    1798.0000000 1353.72187  24.7%     -    0s
     0     0 1353.72187    0   34 1798.00000 1353.72187  24.7%     -    0s
     0     0 1353.72187    0   34 1798.00000 1353.72187  24.7%     -    0s
     0     0 1357.00000    0   33 1798.00000 1357.00000  24.5%     -    0s
H    0     0                    1757.0000000 1357.00000  22.8%     -    0s
     0     0 1357.00000    0   30 1757.00000 1357.00000  22.8%     -    0s
H    0     0                    1718.0000000 1357.00000  21.0%     -    0s
     0     2 1357.00000    0   30 1718.00000 1357.00000  21.0%     -    0s
H  127   100                    1703.0000000 1364.09506  19.9%   4.6    0s

Cutting planes:
  Learned: 18
  Gomory: 5
  Implied bound: 19
  MIR: 10
  Flow cover: 36
  Inf proof: 28

Explored 9186 nodes (40747 simplex iterations) in 0.39 seconds (0.23 work units)
Thread count was 16 (of 16 available processors)

Solution count 10: 1703 1718 1757 ... 2677

Optimal solution found (tolerance 1.00e-04)
Best objective 1.703000000000e+03, best bound 1.703000000000e+03, gap 0.0000%
Warning: variable name "y[job:0, stage:0, machine:1]" has a space
Warning: constraint name "precedence between 1,0 to 0,0 if x_[j,l,h,z,i]=1" has a space
Warning: to let Gurobi read it back, use rlp format
Warning: variable name "y[job:0, stage:0, machine:1]" has a space
Warning: constraint name "precedence between 1,0 to 0,0 if x_[j,l,h,z,i]=1" has a space
Warning: default variable names used to write mps file
Warning: default constraint names used to write mps file
Warning: variable name "y[job:0, stage:0, machine:1]" has a space
Warning: default variable names used to write solution file
